
  17    4
  10   10   10   10

   0   0   0   0   0   5 2 5 6 8 12 
   8   1   0   0   0   1 3 
   1   0   0   0   1   2 14 4 
   1   0   0   0   5   2 15 7 
   7   0   1   0   0   2 14 7 
   2   0   0   1   0   2 14 9 
   3   0   9   0   0   1 9 
   7   0   0   8   0   1 9 
   5   0   0   4   0   1 10 
   7   8   0   0   0   1 11 
   8   0   0   0   8   1 13 
   3   0   0   0   6   1 16 
   7   6   0   0   0   1 17
   6   0   0   7   0   1 17
   4   0   0   0   5   1 17
  10   0   0   0   5   1 17
   0   0   0   0   0   0 
